(set-logic ALL)

; Normalized Portuguese Bank Dataset
; Column-slice encoding
; Numeric column: duration (index 11)

(define-fun m () Int 200)
(define-fun n () Int 1)

(declare-const O (Array Int Real))

(assert (= (select O 0) -0.754455))
(assert (= (select O 1) -0.863366))
(assert (= (select O 2) -0.937624))
(assert (= (select O 3) -0.921782))
(assert (= (select O 4) -0.816832))
(assert (= (select O 5) -0.875248))
(assert (= (select O 6) -0.798020))
(assert (= (select O 7) -0.636634))
(assert (= (select O 8) -0.963366))
(assert (= (select O 9) -0.958416))
(assert (= (select O 10) -0.793069))
(assert (= (select O 11) -0.877228))
(assert (= (select O 12) -0.500990))
(assert (= (select O 13) -0.942574))
(assert (= (select O 14) -0.840594))
(assert (= (select O 15) -0.663366))
(assert (= (select O 16) -0.915842))
(assert (= (select O 17) -0.975248))
(assert (= (select O 18) -0.796040))
(assert (= (select O 19) -0.959406))
(assert (= (select O 20) -0.753465))
(assert (= (select O 21) -0.850495))
(assert (= (select O 22) -0.854455))
(assert (= (select O 23) -0.674257))
(assert (= (select O 24) -0.833663))
(assert (= (select O 25) -0.842574))
(assert (= (select O 26) -0.719802))
(assert (= (select O 27) -0.887129))
(assert (= (select O 28) -0.760396))
(assert (= (select O 29) -0.668317))
(assert (= (select O 30) -0.790099))
(assert (= (select O 31) -0.785149))
(assert (= (select O 32) -0.806931))
(assert (= (select O 33) -0.789109))
(assert (= (select O 34) -0.680198))
(assert (= (select O 35) -0.773267))
(assert (= (select O 36) -0.651485))
(assert (= (select O 37) 0.636634))
(assert (= (select O 38) -0.441584))
(assert (= (select O 39) -0.877228))
(assert (= (select O 40) -0.854455))
(assert (= (select O 41) -0.834653))
(assert (= (select O 42) -0.991089))
(assert (= (select O 43) 0.464356))
(assert (= (select O 44) -0.402970))
(assert (= (select O 45) -0.773267))
(assert (= (select O 46) -0.661386))
(assert (= (select O 47) -0.790099))
(assert (= (select O 48) -0.854455))
(assert (= (select O 49) -0.653465))
(assert (= (select O 50) -0.749505))
(assert (= (select O 51) -0.762376))
(assert (= (select O 52) -0.835644))
(assert (= (select O 53) -0.233663))
(assert (= (select O 54) -0.869307))
(assert (= (select O 55) -0.840594))
(assert (= (select O 56) -0.909901))
(assert (= (select O 57) -1.000000))
(assert (= (select O 58) -0.829703))
(assert (= (select O 59) 0.747525))
(assert (= (select O 60) -0.876238))
(assert (= (select O 61) -0.208911))
(assert (= (select O 62) -0.850495))
(assert (= (select O 63) -0.625743))
(assert (= (select O 64) -0.659406))
(assert (= (select O 65) -0.922772))
(assert (= (select O 66) -0.490099))
(assert (= (select O 67) -0.742574))
(assert (= (select O 68) -0.856436))
(assert (= (select O 69) -0.837624))
(assert (= (select O 70) -0.757426))
(assert (= (select O 71) -0.842574))
(assert (= (select O 72) -0.860396))
(assert (= (select O 73) -0.724752))
(assert (= (select O 74) -0.833663))
(assert (= (select O 75) -0.838614))
(assert (= (select O 76) -0.803960))
(assert (= (select O 77) -0.667327))
(assert (= (select O 78) -0.743564))
(assert (= (select O 79) -0.806931))
(assert (= (select O 80) -0.821782))
(assert (= (select O 81) -0.802970))
(assert (= (select O 82) -0.993069))
(assert (= (select O 83) 0.018812))
(assert (= (select O 84) -0.769307))
(assert (= (select O 85) -0.489109))
(assert (= (select O 86) 0.439604))
(assert (= (select O 87) 0.362376))
(assert (= (select O 88) -0.826733))
(assert (= (select O 89) -0.834653))
(assert (= (select O 90) -0.965347))
(assert (= (select O 91) -0.801980))
(assert (= (select O 92) -0.435644))
(assert (= (select O 93) -0.794059))
(assert (= (select O 94) -0.841584))
(assert (= (select O 95) -0.591089))
(assert (= (select O 96) -0.728713))
(assert (= (select O 97) -0.912871))
(assert (= (select O 98) -0.811881))
(assert (= (select O 99) -0.817822))
(assert (= (select O 100) -0.758416))
(assert (= (select O 101) -0.890099))
(assert (= (select O 102) -0.786139))
(assert (= (select O 103) -0.958416))
(assert (= (select O 104) -0.616832))
(assert (= (select O 105) -0.817822))
(assert (= (select O 106) -0.824752))
(assert (= (select O 107) -0.992079))
(assert (= (select O 108) -0.503960))
(assert (= (select O 109) -0.172277))
(assert (= (select O 110) -0.820792))
(assert (= (select O 111) -0.870297))
(assert (= (select O 112) -0.802970))
(assert (= (select O 113) -0.729703))
(assert (= (select O 114) -0.906931))
(assert (= (select O 115) -0.768317))
(assert (= (select O 116) -0.500000))
(assert (= (select O 117) -0.652475))
(assert (= (select O 118) -0.836634))
(assert (= (select O 119) -0.915842))
(assert (= (select O 120) -0.578218))
(assert (= (select O 121) -0.934653))
(assert (= (select O 122) -0.894059))
(assert (= (select O 123) -0.887129))
(assert (= (select O 124) -0.839604))
(assert (= (select O 125) -0.753465))
(assert (= (select O 126) -0.952475))
(assert (= (select O 127) -0.935644))
(assert (= (select O 128) -0.871287))
(assert (= (select O 129) -0.439604))
(assert (= (select O 130) -0.342574))
(assert (= (select O 131) -0.671287))
(assert (= (select O 132) -0.829703))
(assert (= (select O 133) -0.913861))
(assert (= (select O 134) -0.889109))
(assert (= (select O 135) -0.821782))
(assert (= (select O 136) -0.878218))
(assert (= (select O 137) -0.940594))
(assert (= (select O 138) -0.490099))
(assert (= (select O 139) -0.477228))
(assert (= (select O 140) -0.851485))
(assert (= (select O 141) -0.714851))
(assert (= (select O 142) -0.967327))
(assert (= (select O 143) -0.810891))
(assert (= (select O 144) -0.915842))
(assert (= (select O 145) -0.942574))
(assert (= (select O 146) -0.857426))
(assert (= (select O 147) -0.772277))
(assert (= (select O 148) -0.828713))
(assert (= (select O 149) -0.439604))
(assert (= (select O 150) -0.851485))
(assert (= (select O 151) -0.408911))
(assert (= (select O 152) 1.000000))
(assert (= (select O 153) -0.928713))
(assert (= (select O 154) -0.900000))
(assert (= (select O 155) -0.900000))
(assert (= (select O 156) -0.956436))
(assert (= (select O 157) -0.777228))
(assert (= (select O 158) -0.920792))
(assert (= (select O 159) -0.886139))
(assert (= (select O 160) -0.906931))
(assert (= (select O 161) -0.833663))
(assert (= (select O 162) -0.712871))
(assert (= (select O 163) -0.460396))
(assert (= (select O 164) -0.745545))
(assert (= (select O 165) -0.787129))
(assert (= (select O 166) -0.914851))
(assert (= (select O 167) -0.775248))
(assert (= (select O 168) -0.346535))
(assert (= (select O 169) -0.782178))
(assert (= (select O 170) 0.032673))
(assert (= (select O 171) -0.765347))
(assert (= (select O 172) -0.763366))
(assert (= (select O 173) -0.876238))
(assert (= (select O 174) -0.884158))
(assert (= (select O 175) -0.604950))
(assert (= (select O 176) -0.835644))
(assert (= (select O 177) -0.994059))
(assert (= (select O 178) -0.559406))
(assert (= (select O 179) -0.302970))
(assert (= (select O 180) -0.702970))
(assert (= (select O 181) -0.336634))
(assert (= (select O 182) 0.053465))
(assert (= (select O 183) -0.600990))
(assert (= (select O 184) -0.868317))
(assert (= (select O 185) -0.847525))
(assert (= (select O 186) -0.700990))
(assert (= (select O 187) -0.874257))
(assert (= (select O 188) -0.670297))
(assert (= (select O 189) -0.456436))
(assert (= (select O 190) -0.842574))
(assert (= (select O 191) -0.798020))
(assert (= (select O 192) -0.872277))
(assert (= (select O 193) -0.946535))
(assert (= (select O 194) -0.724752))
(assert (= (select O 195) -0.706931))
(assert (= (select O 196) -0.767327))
(assert (= (select O 197) -0.915842))
(assert (= (select O 198) -0.759406))
(assert (= (select O 199) -0.931683))


; =====================
; squared-distance well-distributedness (1D, recursive squared distance)
; column-slice encoding
; =====================

; d^2: Real (squared distance threshold)
(define-fun d2 () Real 4.0)

; 1D squared diff sum
(define-fun-rec squared-diff-sum-1d ((p Real) (x Real) (size Int)) Real
  (ite (< size 0)
       0.0
       (+ (* (- p x) (- p x))
          (squared-diff-sum-1d p x (- size 1)))
  )
)

(assert
  (not
    (exists ((p Real))
      (and
        (>= p -1.0)
        (<= p  1.0)
        (forall ((i Int))
          (=>
            (and (>= i 0) (< i m))
            (> (squared-diff-sum-1d p (select O i) (- n 1)) d2)
          )
        )
      )
    )
  )
)

(check-sat)
